(set-logic ALL)
(declare-const BAV1 Bool)
(declare-const BAV2 Bool)
(declare-const BAV3 Bool)
(declare-const BAV4 Bool)
(declare-sort A 0)
(declare-fun f ((_ BitVec 1)) A)
(declare-fun g (A) (_ BitVec 1))
(declare-fun x () A)
(declare-fun y () A)
(declare-fun z () A)
(assert (and (not (= (f (g x)) (f (g y)))) (not (= (f (g x)) (f (g z)))) (not (= (f (g y)) (f (g z))))))
(assert (= BAV1 (and (not (= (f (g x)) (f (g y)))) (not (= (f (g x)) (f (g z)))) (not (= (f (g y)) (f (g z)))))))
(assert (= BAV2 (= (f (g x)) (f (g y)))))
(assert (= BAV3 (= (f (g x)) (f (g z)))))
(assert (= BAV4 (= (f (g y)) (f (g z)))))
(check-sat)
(get-model)